Minimize
+ 4 x_0 + 4 x_1 + 4 x_2 + 4 x_3 + 4 x_4
+ 2 x_5 + 2 x_6 + 2 x_7 + 2 x_8 + 2 x_9
+ 1 x_10 + 1 x_11 + 1 x_12 + 1 x_13 + 1 x_14
+ 2 x_15 + 2 x_16 + 2 x_17 + 2 x_18 + 2 x_19
+ 12 x_20 + 12 x_21 + 12 x_22 + 12 x_23 + 12 x_24
+ 9 x_25 + 9 x_26 + 9 x_27 + 9 x_28 + 9 x_29
subject to
constr_0: + x_0 - x_10 = 3
constr_1: + x_1 + x_10 - x_11 = 3
constr_2: + x_2 + x_11 - x_12 = 3
constr_3: + x_3 + x_12 - x_13 = 3
constr_4: + x_4 + x_13 - x_14 = 3
constr_5: + x_5 - x_15 = 5
constr_6: + x_6 + x_15 - x_16 = 5
constr_7: + x_7 + x_16 - x_17 = 5
constr_8: + x_8 + x_17 - x_18 = 5
constr_9: + x_9 + x_18 - x_19 = 5
constr_10: + x_10 + x_15 <= 20
constr_11: + x_11 + x_16 <= 20
constr_12: + x_12 + x_17 <= 20
constr_13: + x_13 + x_18 <= 20
constr_14: + x_14 + x_19 <= 20
constr_15: + x_0 - 15 x_20 <= 0
constr_16: + x_1 - 15 x_21 <= 0
constr_17: + x_2 - 15 x_22 <= 0
constr_18: + x_3 - 15 x_23 <= 0
constr_19: + x_4 - 15 x_24 <= 0
constr_20: + x_5 - 15 x_25 <= 0
constr_21: + x_6 - 15 x_26 <= 0
constr_22: + x_7 - 15 x_27 <= 0
constr_23: + x_8 - 15 x_28 <= 0
constr_24: + x_9 - 15 x_29 <= 0
constr_25: + x_0 + x_5 <= 15
constr_26: + x_1 + x_6 <= 15
constr_27: + x_2 + x_7 <= 15
constr_28: + x_3 + x_8 <= 15
constr_29: + x_4 + x_9 <= 15
Binaries
x_20
x_21
x_22
x_23
x_24
x_25
x_26
x_27
x_28
x_29
End
